SetGridsize(200, 50, 1)
SetCellsize(2.5e-9, 2.5e-9, 3e-9)

Msat  = 800e3
Aex   = 13e-12
alpha = 0.02

m = uniform(1, 1, 1)
relax()
save(m)    // relaxed state

autosave(m, 20e-12)
tableautosave(10e-12)

B_ext = vector(-24.6E-3, 4.3E-3, 0)
run(3e-9)

